************************************************************************
file with basedata            : mm3_.bas
initial value random generator: 239511140
************************************************************************
projects                      :  1
jobs (incl. supersource/sink ):  12
horizon                       :  68
RESOURCES
  - renewable                 :  2   R
  - nonrenewable              :  2   N
  - doubly constrained        :  0   D
************************************************************************
PROJECT INFORMATION:
pronr.  #jobs rel.date duedate tardcost  MPM-Time
    1     10      0       15        1       15
************************************************************************
PRECEDENCE RELATIONS:
jobnr.    #modes  #successors   successors
   0        1          3           1   2   3
   1        3          3           4   5   6
   2        3          1           5
   3        3          1           6
   4        3          2           7  10
   5        3          2           8  10
   6        3          2           9  10
   7        3          1           8
   8        3          1          11
   9        3          1          11
  10        3          1          11
  11        1          0        
************************************************************************
REQUESTS/DURATIONS:
jobnr. mode duration  R 1  R 2  R 3  R 4  E(W 1)  E(W 2)
------------------------------------------------------------------------
  0      1     0       0    0    0    0     0       0
  1      1     1       0    9    5    0     9       5
  2      1     4       0    5    0    9    20      36
  3      1     1       0    8   10    0     8      10
  4      1     3       8    0    0   10    24      30
  5      1     3      10    0    6    0    30      18
  6      1     2       6    0    8    0    12      16
  7      1     4       8    0    0   10    32      40
  8      1     7       0    6    3    0    42      21
  9      1     2       0    4    8    0     8      16
 10      1     6       6    0    6    0    36      36
 11      1     0       0    0    0    0     0       0
************************************************************************
RESOURCEAVAILABILITIES:
  R 1  R 2
   18   95
************************************************************************
RESOURCE LIMITS:
jobnr.  l(R 1)  u(R 1)  l(R 2)  u(R 2)
------------------------------------------------------------------------
  0        0       0       0       0
  1        5       9       3       5
  2        3       5       5       9
  3        4       8       5      10
  4        4       8       5      10
  5        5      10       3       6
  6        3       6       4       8
  7        4       8       5      10
  8        3       6       2       3
  9        2       4       4       8
 10        3       6       3       6
 11        0       0       0       0
************************************************************************
SCENARIOS:
------------------------------------------------------------------------
RESOURCE k = 1
s = 1: (0, 7, 21, 7, 37, 28, 10, 33, 56, 8, 29, 0)
s = 2: (0, 8, 25, 9, 31, 30, 13, 20, 68, 12, 31, 0)
s = 3: (0, 11, 14, 9, 17, 27, 13, 30, 24, 9, 30, 0)
s = 4: (0, 9, 19, 8, 33, 21, 15, 30, 30, 6, 47, 0)
s = 5: (0, 10, 20, 11, 18, 27, 8, 40, 43, 7, 35, 0)
s = 6: (0, 7, 18, 11, 35, 36, 10, 55, 31, 11, 47, 0)
s = 7: (0, 10, 27, 10, 23, 34, 11, 39, 33, 6, 44, 0)
s = 8: (0, 9, 12, 7, 32, 29, 13, 43, 63, 9, 44, 0)
s = 9: (0, 8, 20, 10, 26, 40, 18, 36, 26, 5, 58, 0)
s = 10: (0, 14, 25, 11, 26, 28, 10, 41, 28, 8, 43, 0)
s = 11: (0, 9, 24, 9, 27, 20, 14, 39, 38, 10, 27, 0)
s = 12: (0, 9, 30, 10, 16, 42, 10, 32, 50, 9, 32, 0)
s = 13: (0, 10, 16, 10, 22, 34, 9, 44, 43, 13, 36, 0)
s = 14: (0, 11, 15, 5, 23, 37, 10, 24, 53, 6, 45, 0)
s = 15: (0, 6, 17, 9, 23, 36, 10, 23, 41, 6, 58, 0)
s = 16: (0, 7, 17, 11, 39, 40, 7, 22, 39, 13, 55, 0)
s = 17: (0, 13, 14, 12, 32, 27, 8, 23, 47, 7, 38, 0)
s = 18: (0, 8, 27, 13, 26, 19, 13, 43, 27, 10, 46, 0)
s = 19: (0, 10, 29, 8, 21, 26, 16, 39, 55, 12, 44, 0)
s = 20: (0, 11, 29, 10, 25, 46, 15, 35, 51, 5, 22, 0)
s = 21: (0, 9, 17, 10, 22, 19, 10, 46, 28, 8, 45, 0)
s = 22: (0, 10, 28, 6, 20, 27, 16, 30, 61, 9, 35, 0)
s = 23: (0, 17, 14, 7, 26, 30, 10, 26, 28, 7, 29, 0)
s = 24: (0, 9, 22, 6, 24, 49, 14, 28, 25, 11, 46, 0)
s = 25: (0, 6, 25, 8, 23, 31, 19, 25, 39, 6, 37, 0)
s = 26: (0, 7, 34, 11, 18, 22, 12, 38, 55, 7, 45, 0)
s = 27: (0, 11, 24, 13, 16, 45, 8, 45, 31, 8, 60, 0)
s = 28: (0, 9, 11, 6, 19, 30, 10, 25, 50, 9, 31, 0)
s = 29: (0, 8, 14, 11, 19, 19, 17, 34, 39, 6, 42, 0)
s = 30: (0, 9, 14, 8, 18, 22, 10, 29, 70, 7, 45, 0)
s = 31: (0, 12, 25, 10, 26, 35, 14, 26, 33, 13, 37, 0)
s = 32: (0, 13, 23, 7, 30, 24, 13, 28, 59, 8, 37, 0)
s = 33: (0, 8, 24, 9, 24, 42, 7, 26, 43, 11, 48, 0)
s = 34: (0, 8, 30, 7, 24, 35, 8, 31, 47, 12, 22, 0)
s = 35: (0, 10, 32, 14, 26, 30, 18, 34, 26, 10, 32, 0)
s = 36: (0, 8, 13, 6, 23, 20, 10, 34, 36, 5, 46, 0)
s = 37: (0, 13, 26, 7, 20, 18, 11, 30, 35, 10, 20, 0)
s = 38: (0, 8, 13, 9, 36, 30, 14, 38, 44, 8, 35, 0)
s = 39: (0, 11, 12, 11, 16, 27, 15, 46, 38, 9, 31, 0)
s = 40: (0, 10, 20, 6, 17, 40, 8, 38, 42, 7, 35, 0)
s = 41: (0, 10, 15, 7, 20, 34, 13, 31, 24, 9, 45, 0)
s = 42: (0, 7, 19, 6, 18, 19, 16, 35, 42, 8, 63, 0)
s = 43: (0, 9, 16, 8, 27, 34, 11, 34, 34, 12, 32, 0)
s = 44: (0, 7, 18, 5, 19, 50, 12, 31, 26, 9, 22, 0)
s = 45: (0, 7, 15, 5, 30, 39, 17, 35, 31, 7, 31, 0)
s = 46: (0, 9, 18, 6, 26, 21, 14, 42, 42, 7, 34, 0)
s = 47: (0, 13, 24, 5, 15, 22, 8, 36, 29, 6, 22, 0)
s = 48: (0, 12, 21, 6, 19, 33, 8, 28, 31, 8, 27, 0)
s = 49: (0, 7, 13, 7, 29, 20, 9, 30, 37, 7, 34, 0)
s = 50: (0, 10, 18, 7, 28, 25, 14, 54, 61, 12, 35, 0)
s = 51: (0, 11, 16, 8, 32, 28, 16, 45, 50, 8, 31, 0)
s = 52: (0, 9, 23, 10, 20, 43, 20, 26, 27, 7, 21, 0)
s = 53: (0, 9, 16, 12, 17, 28, 15, 38, 33, 7, 27, 0)
s = 54: (0, 7, 31, 7, 34, 25, 10, 35, 29, 6, 32, 0)
s = 55: (0, 8, 23, 8, 19, 20, 14, 38, 36, 9, 52, 0)
s = 56: (0, 11, 17, 10, 35, 17, 8, 26, 59, 9, 47, 0)
s = 57: (0, 15, 34, 7, 25, 24, 13, 29, 48, 9, 42, 0)
s = 58: (0, 14, 24, 6, 22, 28, 19, 38, 35, 6, 37, 0)
s = 59: (0, 7, 16, 14, 16, 21, 13, 46, 55, 7, 36, 0)
s = 60: (0, 14, 13, 5, 15, 41, 9, 41, 46, 8, 45, 0)
s = 61: (0, 8, 24, 12, 17, 37, 10, 43, 24, 11, 52, 0)
s = 62: (0, 7, 15, 7, 35, 37, 13, 36, 30, 14, 34, 0)
s = 63: (0, 7, 24, 10, 39, 25, 13, 33, 52, 12, 37, 0)
s = 64: (0, 8, 15, 10, 31, 29, 12, 54, 36, 7, 63, 0)
s = 65: (0, 10, 19, 5, 26, 37, 13, 40, 41, 9, 43, 0)
s = 66: (0, 7, 20, 8, 25, 37, 13, 37, 46, 7, 23, 0)
s = 67: (0, 10, 19, 6, 29, 49, 10, 50, 46, 11, 31, 0)
s = 68: (0, 10, 26, 13, 36, 31, 10, 28, 50, 7, 30, 0)
s = 69: (0, 8, 24, 10, 15, 38, 12, 40, 44, 8, 28, 0)
s = 70: (0, 7, 20, 7, 22, 22, 14, 27, 79, 6, 34, 0)
s = 71: (0, 9, 20, 12, 29, 29, 15, 30, 35, 5, 38, 0)
s = 72: (0, 11, 14, 10, 34, 23, 11, 32, 39, 12, 28, 0)
s = 73: (0, 7, 25, 9, 13, 35, 11, 39, 35, 14, 48, 0)
s = 74: (0, 8, 15, 7, 33, 44, 7, 34, 34, 13, 40, 0)
s = 75: (0, 10, 21, 9, 30, 33, 10, 46, 58, 8, 55, 0)
s = 76: (0, 12, 18, 5, 32, 31, 14, 29, 35, 10, 30, 0)
s = 77: (0, 8, 23, 11, 21, 31, 19, 46, 35, 6, 29, 0)
s = 78: (0, 6, 26, 6, 17, 34, 10, 31, 34, 12, 29, 0)
s = 79: (0, 9, 22, 8, 19, 40, 13, 38, 39, 8, 38, 0)
s = 80: (0, 12, 26, 7, 20, 22, 8, 31, 46, 8, 25, 0)
s = 81: (0, 10, 27, 8, 18, 29, 17, 34, 42, 7, 36, 0)
s = 82: (0, 13, 14, 12, 22, 27, 8, 22, 57, 6, 59, 0)
s = 83: (0, 10, 18, 9, 16, 32, 14, 28, 44, 10, 19, 0)
s = 84: (0, 11, 21, 14, 25, 20, 16, 17, 31, 6, 27, 0)
s = 85: (0, 10, 24, 6, 29, 30, 15, 33, 31, 6, 42, 0)
s = 86: (0, 9, 22, 7, 15, 22, 15, 39, 37, 6, 29, 0)
s = 87: (0, 8, 15, 7, 27, 35, 21, 29, 28, 10, 42, 0)
s = 88: (0, 6, 20, 5, 31, 41, 13, 27, 61, 7, 28, 0)
s = 89: (0, 11, 21, 9, 25, 22, 19, 34, 41, 9, 36, 0)
s = 90: (0, 9, 29, 8, 15, 23, 9, 55, 31, 7, 32, 0)
s = 91: (0, 9, 13, 9, 32, 33, 9, 26, 74, 10, 58, 0)
s = 92: (0, 8, 28, 8, 18, 35, 8, 27, 55, 12, 43, 0)
s = 93: (0, 9, 13, 6, 29, 36, 9, 29, 33, 7, 35, 0)
s = 94: (0, 7, 19, 10, 36, 41, 11, 36, 29, 9, 25, 0)
s = 95: (0, 11, 22, 7, 19, 22, 12, 26, 29, 9, 50, 0)
s = 96: (0, 8, 25, 7, 16, 30, 10, 45, 43, 10, 23, 0)
s = 97: (0, 8, 15, 5, 20, 34, 18, 25, 42, 6, 54, 0)
s = 98: (0, 11, 12, 5, 18, 44, 16, 30, 28, 6, 29, 0)
s = 99: (0, 9, 15, 6, 29, 22, 14, 35, 34, 10, 29, 0)
s = 100: (0, 13, 23, 13, 37, 25, 12, 21, 34, 14, 23, 0)
s = 101: (0, 10, 24, 7, 38, 41, 13, 31, 48, 5, 55, 0)
s = 102: (0, 8, 26, 6, 31, 21, 10, 21, 28, 8, 24, 0)
s = 103: (0, 10, 17, 14, 26, 36, 21, 40, 49, 10, 48, 0)
s = 104: (0, 6, 20, 6, 21, 25, 15, 25, 35, 7, 35, 0)
s = 105: (0, 10, 14, 11, 23, 40, 12, 44, 31, 13, 50, 0)
s = 106: (0, 12, 14, 14, 22, 27, 7, 22, 35, 6, 23, 0)
s = 107: (0, 13, 24, 7, 18, 43, 16, 47, 30, 8, 34, 0)
s = 108: (0, 10, 30, 8, 30, 25, 12, 23, 52, 6, 50, 0)
s = 109: (0, 8, 15, 5, 20, 23, 11, 34, 41, 7, 48, 0)
s = 110: (0, 10, 17, 6, 20, 39, 15, 48, 57, 9, 41, 0)
s = 111: (0, 8, 20, 6, 24, 21, 15, 30, 42, 10, 47, 0)
s = 112: (0, 14, 13, 12, 33, 42, 7, 37, 34, 10, 30, 0)
s = 113: (0, 7, 23, 6, 21, 35, 11, 29, 58, 6, 37, 0)
s = 114: (0, 9, 16, 11, 18, 32, 11, 24, 44, 5, 37, 0)
s = 115: (0, 6, 26, 6, 22, 27, 12, 33, 57, 8, 38, 0)
s = 116: (0, 11, 21, 9, 15, 42, 9, 30, 34, 8, 27, 0)
s = 117: (0, 10, 32, 9, 19, 32, 9, 30, 30, 9, 41, 0)
s = 118: (0, 8, 25, 11, 35, 25, 11, 24, 67, 7, 33, 0)
s = 119: (0, 11, 17, 7, 22, 26, 8, 21, 78, 9, 45, 0)
s = 120: (0, 6, 18, 5, 19, 28, 13, 28, 37, 8, 46, 0)
s = 121: (0, 11, 29, 6, 17, 37, 8, 54, 47, 6, 63, 0)
s = 122: (0, 8, 17, 11, 21, 29, 10, 33, 26, 6, 40, 0)
s = 123: (0, 16, 16, 8, 32, 25, 14, 32, 65, 9, 53, 0)
s = 124: (0, 11, 22, 7, 17, 20, 11, 22, 64, 10, 27, 0)
s = 125: (0, 9, 14, 9, 15, 31, 16, 27, 54, 6, 48, 0)
s = 126: (0, 13, 15, 6, 19, 21, 9, 27, 35, 10, 47, 0)
s = 127: (0, 9, 13, 5, 36, 33, 8, 30, 28, 7, 29, 0)
s = 128: (0, 9, 22, 11, 41, 19, 11, 23, 76, 10, 33, 0)
s = 129: (0, 10, 18, 13, 24, 40, 13, 23, 49, 6, 37, 0)
s = 130: (0, 8, 15, 6, 24, 24, 22, 42, 60, 10, 36, 0)
s = 131: (0, 12, 19, 11, 29, 34, 11, 36, 34, 10, 29, 0)
s = 132: (0, 11, 16, 11, 25, 30, 14, 50, 32, 8, 32, 0)
s = 133: (0, 8, 24, 9, 22, 37, 11, 48, 53, 15, 20, 0)
s = 134: (0, 11, 18, 7, 16, 23, 12, 41, 31, 7, 30, 0)
s = 135: (0, 8, 33, 8, 29, 17, 12, 23, 44, 8, 26, 0)
s = 136: (0, 6, 19, 8, 22, 22, 22, 35, 65, 6, 33, 0)
s = 137: (0, 12, 16, 8, 30, 60, 9, 28, 42, 6, 58, 0)
s = 138: (0, 6, 22, 7, 25, 31, 13, 41, 62, 12, 31, 0)
s = 139: (0, 11, 15, 10, 17, 25, 13, 43, 47, 6, 51, 0)
s = 140: (0, 11, 27, 8, 14, 43, 14, 37, 45, 13, 50, 0)
s = 141: (0, 7, 18, 6, 31, 34, 14, 22, 28, 10, 41, 0)
s = 142: (0, 9, 32, 8, 36, 33, 8, 29, 35, 13, 28, 0)
s = 143: (0, 8, 16, 7, 26, 27, 12, 18, 41, 5, 47, 0)
s = 144: (0, 13, 11, 10, 16, 54, 14, 27, 44, 10, 45, 0)
s = 145: (0, 7, 17, 10, 23, 27, 15, 35, 41, 6, 21, 0)
s = 146: (0, 15, 26, 9, 25, 16, 8, 41, 46, 10, 33, 0)
s = 147: (0, 8, 13, 12, 30, 25, 20, 24, 33, 12, 31, 0)
s = 148: (0, 7, 15, 10, 14, 46, 15, 26, 36, 7, 47, 0)
s = 149: (0, 8, 13, 9, 22, 50, 12, 38, 48, 9, 35, 0)
s = 150: (0, 11, 17, 5, 15, 20, 13, 42, 37, 7, 27, 0)
s = 151: (0, 9, 19, 7, 24, 23, 17, 29, 23, 8, 26, 0)
s = 152: (0, 7, 17, 7, 23, 39, 15, 37, 51, 6, 44, 0)
s = 153: (0, 10, 20, 10, 23, 29, 14, 34, 36, 7, 22, 0)
s = 154: (0, 14, 16, 6, 22, 31, 14, 26, 38, 12, 49, 0)
s = 155: (0, 8, 22, 7, 30, 21, 9, 20, 44, 6, 52, 0)
s = 156: (0, 10, 27, 8, 31, 31, 12, 45, 25, 8, 45, 0)
s = 157: (0, 15, 12, 10, 33, 28, 13, 35, 33, 5, 60, 0)
s = 158: (0, 11, 14, 12, 22, 45, 11, 29, 36, 10, 30, 0)
s = 159: (0, 7, 23, 9, 29, 29, 9, 38, 35, 9, 27, 0)
s = 160: (0, 11, 15, 13, 27, 19, 8, 37, 36, 9, 42, 0)
s = 161: (0, 10, 19, 6, 14, 46, 8, 25, 29, 10, 24, 0)
s = 162: (0, 13, 22, 6, 23, 26, 11, 44, 55, 9, 33, 0)
s = 163: (0, 14, 15, 10, 23, 36, 12, 34, 37, 11, 21, 0)
s = 164: (0, 10, 15, 6, 23, 43, 10, 23, 29, 9, 36, 0)
s = 165: (0, 8, 16, 8, 21, 28, 15, 23, 62, 5, 32, 0)
s = 166: (0, 10, 14, 12, 21, 42, 11, 41, 41, 7, 22, 0)
s = 167: (0, 9, 20, 6, 27, 40, 16, 29, 50, 11, 51, 0)
s = 168: (0, 14, 15, 8, 24, 33, 12, 30, 43, 9, 37, 0)
s = 169: (0, 10, 17, 8, 30, 19, 9, 29, 29, 10, 42, 0)
s = 170: (0, 12, 22, 9, 20, 22, 8, 38, 40, 7, 45, 0)
s = 171: (0, 9, 17, 8, 23, 27, 10, 30, 44, 13, 60, 0)
s = 172: (0, 11, 31, 10, 29, 43, 14, 37, 42, 11, 54, 0)
s = 173: (0, 11, 24, 9, 31, 36, 13, 35, 55, 7, 51, 0)
s = 174: (0, 9, 21, 11, 14, 32, 16, 22, 56, 7, 71, 0)
s = 175: (0, 15, 30, 7, 13, 29, 15, 36, 40, 8, 32, 0)
s = 176: (0, 6, 16, 8, 27, 25, 11, 20, 31, 6, 46, 0)
s = 177: (0, 7, 20, 13, 20, 31, 19, 24, 28, 9, 29, 0)
s = 178: (0, 14, 19, 5, 24, 33, 14, 27, 29, 13, 41, 0)
s = 179: (0, 14, 25, 7, 16, 23, 15, 44, 56, 6, 48, 0)
s = 180: (0, 7, 18, 9, 25, 35, 9, 31, 36, 11, 43, 0)
s = 181: (0, 9, 24, 6, 23, 25, 18, 18, 73, 7, 28, 0)
s = 182: (0, 6, 18, 13, 27, 35, 9, 30, 51, 8, 21, 0)
s = 183: (0, 12, 23, 10, 23, 20, 14, 39, 36, 8, 36, 0)
s = 184: (0, 6, 23, 11, 17, 25, 10, 20, 34, 8, 22, 0)
s = 185: (0, 16, 15, 10, 30, 46, 20, 30, 50, 8, 47, 0)
s = 186: (0, 10, 13, 11, 23, 30, 9, 28, 37, 5, 30, 0)
s = 187: (0, 12, 23, 12, 25, 16, 11, 40, 22, 10, 24, 0)
s = 188: (0, 7, 14, 8, 26, 22, 11, 26, 33, 12, 53, 0)
s = 189: (0, 8, 21, 12, 27, 36, 14, 32, 32, 10, 32, 0)
s = 190: (0, 7, 17, 6, 24, 21, 12, 22, 28, 10, 56, 0)
s = 191: (0, 12, 25, 6, 25, 33, 12, 36, 39, 10, 27, 0)
s = 192: (0, 13, 24, 7, 25, 31, 8, 38, 27, 7, 31, 0)
s = 193: (0, 13, 14, 5, 20, 30, 8, 33, 75, 8, 27, 0)
s = 194: (0, 16, 22, 8, 15, 24, 14, 26, 44, 6, 36, 0)
s = 195: (0, 14, 30, 8, 33, 28, 11, 34, 32, 7, 33, 0)
s = 196: (0, 11, 29, 5, 27, 20, 10, 21, 52, 10, 47, 0)
s = 197: (0, 7, 27, 11, 33, 26, 10, 47, 24, 12, 28, 0)
s = 198: (0, 9, 25, 8, 27, 43, 13, 29, 30, 8, 48, 0)
s = 199: (0, 8, 16, 6, 41, 24, 19, 22, 45, 11, 43, 0)
s = 200: (0, 12, 12, 7, 14, 32, 18, 42, 65, 7, 33, 0)
------------------------------------------------------------------------
RESOURCE k = 2
s = 1: (0, 4, 37, 8, 47, 17, 13, 41, 28, 15, 29, 0)
s = 2: (0, 5, 45, 11, 39, 18, 18, 24, 34, 24, 31, 0)
s = 3: (0, 7, 25, 11, 21, 16, 17, 37, 12, 18, 30, 0)
s = 4: (0, 5, 34, 10, 41, 13, 20, 38, 15, 12, 47, 0)
s = 5: (0, 6, 36, 13, 22, 17, 11, 50, 22, 13, 35, 0)
s = 6: (0, 4, 31, 14, 44, 22, 14, 69, 16, 21, 47, 0)
s = 7: (0, 6, 47, 13, 29, 20, 15, 49, 17, 12, 44, 0)
s = 8: (0, 5, 21, 8, 40, 18, 17, 53, 32, 18, 44, 0)
s = 9: (0, 5, 35, 12, 32, 24, 24, 45, 13, 10, 58, 0)
s = 10: (0, 8, 45, 13, 33, 17, 13, 51, 14, 16, 43, 0)
s = 11: (0, 5, 44, 11, 34, 12, 19, 48, 19, 19, 27, 0)
s = 12: (0, 5, 53, 13, 20, 26, 13, 39, 25, 18, 32, 0)
s = 13: (0, 6, 29, 13, 28, 20, 12, 55, 22, 25, 36, 0)
s = 14: (0, 6, 27, 7, 29, 23, 14, 30, 27, 12, 45, 0)
s = 15: (0, 4, 30, 11, 28, 22, 13, 28, 21, 12, 58, 0)
s = 16: (0, 4, 31, 13, 48, 24, 9, 28, 20, 25, 55, 0)
s = 17: (0, 7, 25, 15, 40, 16, 11, 29, 24, 14, 38, 0)
s = 18: (0, 5, 49, 16, 33, 11, 18, 53, 14, 19, 46, 0)
s = 19: (0, 6, 51, 10, 26, 16, 22, 49, 28, 23, 44, 0)
s = 20: (0, 6, 52, 12, 31, 28, 20, 43, 26, 10, 22, 0)
s = 21: (0, 5, 30, 12, 27, 12, 14, 57, 14, 15, 45, 0)
s = 22: (0, 6, 50, 8, 24, 16, 21, 37, 31, 17, 35, 0)
s = 23: (0, 10, 25, 9, 33, 18, 13, 32, 14, 13, 29, 0)
s = 24: (0, 5, 39, 8, 30, 29, 18, 34, 13, 21, 46, 0)
s = 25: (0, 4, 44, 10, 28, 19, 25, 31, 20, 11, 37, 0)
s = 26: (0, 4, 60, 13, 23, 13, 16, 47, 28, 13, 45, 0)
s = 27: (0, 6, 42, 16, 19, 27, 10, 56, 16, 15, 60, 0)
s = 28: (0, 5, 20, 7, 23, 18, 13, 32, 25, 17, 31, 0)
s = 29: (0, 5, 24, 13, 23, 12, 22, 42, 20, 11, 42, 0)
s = 30: (0, 5, 25, 10, 22, 13, 14, 36, 35, 14, 45, 0)
s = 31: (0, 7, 44, 12, 32, 21, 18, 32, 17, 25, 37, 0)
s = 32: (0, 7, 41, 8, 37, 14, 17, 34, 30, 16, 37, 0)
s = 33: (0, 5, 42, 12, 30, 25, 9, 33, 22, 21, 48, 0)
s = 34: (0, 5, 53, 9, 30, 21, 11, 38, 24, 23, 22, 0)
s = 35: (0, 6, 58, 18, 33, 18, 24, 42, 13, 19, 32, 0)
s = 36: (0, 5, 22, 8, 29, 12, 13, 42, 18, 9, 46, 0)
s = 37: (0, 8, 47, 9, 25, 11, 15, 38, 18, 20, 20, 0)
s = 38: (0, 5, 23, 11, 45, 18, 18, 47, 22, 15, 35, 0)
s = 39: (0, 6, 21, 14, 20, 16, 20, 58, 19, 17, 31, 0)
s = 40: (0, 6, 36, 7, 21, 24, 11, 48, 21, 14, 35, 0)
s = 41: (0, 6, 27, 9, 25, 20, 17, 38, 12, 17, 45, 0)
s = 42: (0, 4, 34, 7, 23, 11, 22, 43, 21, 15, 63, 0)
s = 43: (0, 5, 29, 10, 34, 21, 15, 43, 17, 24, 32, 0)
s = 44: (0, 4, 33, 6, 24, 30, 15, 38, 13, 17, 22, 0)
s = 45: (0, 4, 26, 6, 38, 24, 22, 44, 16, 13, 31, 0)
s = 46: (0, 5, 32, 8, 32, 13, 18, 53, 21, 14, 34, 0)
s = 47: (0, 8, 43, 7, 19, 13, 10, 45, 15, 12, 22, 0)
s = 48: (0, 7, 38, 7, 23, 20, 11, 35, 16, 15, 27, 0)
s = 49: (0, 4, 22, 9, 36, 12, 12, 37, 19, 13, 34, 0)
s = 50: (0, 6, 32, 9, 35, 15, 18, 67, 31, 23, 35, 0)
s = 51: (0, 6, 29, 9, 40, 17, 21, 56, 25, 15, 31, 0)
s = 52: (0, 5, 41, 12, 25, 26, 27, 32, 14, 13, 21, 0)
s = 53: (0, 5, 28, 15, 22, 17, 20, 47, 17, 14, 27, 0)
s = 54: (0, 4, 55, 8, 43, 15, 13, 44, 15, 11, 32, 0)
s = 55: (0, 5, 42, 10, 23, 12, 18, 47, 18, 18, 52, 0)
s = 56: (0, 7, 29, 12, 44, 10, 10, 32, 30, 18, 47, 0)
s = 57: (0, 9, 60, 9, 32, 15, 17, 36, 24, 18, 42, 0)
s = 58: (0, 8, 43, 8, 27, 17, 26, 47, 18, 11, 37, 0)
s = 59: (0, 4, 29, 17, 20, 13, 18, 57, 28, 13, 36, 0)
s = 60: (0, 8, 22, 7, 19, 25, 12, 52, 23, 16, 45, 0)
s = 61: (0, 4, 42, 15, 21, 22, 13, 53, 12, 21, 52, 0)
s = 62: (0, 4, 26, 9, 43, 22, 17, 45, 15, 27, 34, 0)
s = 63: (0, 4, 43, 12, 49, 15, 17, 41, 26, 24, 37, 0)
s = 64: (0, 5, 27, 13, 39, 18, 15, 68, 18, 14, 63, 0)
s = 65: (0, 6, 35, 7, 33, 23, 18, 50, 21, 17, 43, 0)
s = 66: (0, 4, 35, 10, 32, 23, 17, 47, 23, 14, 23, 0)
s = 67: (0, 6, 33, 7, 37, 30, 14, 63, 23, 21, 31, 0)
s = 68: (0, 6, 46, 17, 45, 19, 13, 35, 25, 14, 30, 0)
s = 69: (0, 5, 43, 12, 19, 23, 16, 50, 22, 16, 28, 0)
s = 70: (0, 4, 36, 8, 27, 13, 18, 33, 40, 12, 34, 0)
s = 71: (0, 5, 36, 15, 37, 18, 19, 37, 18, 9, 38, 0)
s = 72: (0, 7, 25, 13, 43, 14, 14, 40, 20, 23, 28, 0)
s = 73: (0, 4, 45, 11, 17, 21, 15, 48, 18, 27, 48, 0)
s = 74: (0, 5, 26, 8, 41, 26, 10, 43, 17, 25, 40, 0)
s = 75: (0, 6, 38, 12, 37, 20, 13, 58, 29, 16, 55, 0)
s = 76: (0, 7, 33, 7, 40, 19, 18, 37, 18, 20, 30, 0)
s = 77: (0, 4, 41, 14, 26, 19, 25, 57, 18, 12, 29, 0)
s = 78: (0, 3, 46, 7, 21, 21, 13, 39, 17, 23, 29, 0)
s = 79: (0, 5, 39, 10, 24, 24, 18, 48, 20, 15, 38, 0)
s = 80: (0, 7, 47, 9, 25, 14, 11, 38, 23, 16, 25, 0)
s = 81: (0, 6, 49, 10, 23, 17, 22, 42, 21, 13, 36, 0)
s = 82: (0, 7, 26, 15, 27, 16, 10, 27, 29, 12, 59, 0)
s = 83: (0, 6, 32, 11, 20, 20, 19, 35, 22, 19, 19, 0)
s = 84: (0, 6, 37, 17, 31, 12, 22, 21, 16, 12, 27, 0)
s = 85: (0, 6, 42, 8, 36, 18, 20, 41, 16, 11, 42, 0)
s = 86: (0, 5, 38, 9, 18, 13, 20, 48, 19, 12, 29, 0)
s = 87: (0, 5, 26, 8, 34, 21, 28, 36, 14, 19, 42, 0)
s = 88: (0, 4, 36, 6, 38, 25, 17, 34, 31, 13, 28, 0)
s = 89: (0, 6, 38, 11, 32, 13, 25, 42, 21, 18, 36, 0)
s = 90: (0, 5, 52, 10, 19, 14, 12, 68, 16, 14, 32, 0)
s = 91: (0, 5, 24, 11, 40, 20, 12, 32, 37, 19, 58, 0)
s = 92: (0, 4, 50, 10, 23, 21, 11, 34, 28, 23, 43, 0)
s = 93: (0, 5, 24, 7, 36, 22, 12, 37, 17, 14, 35, 0)
s = 94: (0, 4, 34, 13, 44, 25, 14, 45, 15, 18, 25, 0)
s = 95: (0, 6, 39, 9, 24, 13, 16, 32, 15, 17, 50, 0)
s = 96: (0, 5, 45, 9, 20, 18, 13, 56, 22, 20, 23, 0)
s = 97: (0, 5, 26, 7, 25, 21, 24, 31, 21, 12, 54, 0)
s = 98: (0, 6, 22, 7, 22, 26, 21, 37, 14, 12, 29, 0)
s = 99: (0, 5, 26, 8, 36, 13, 18, 44, 17, 20, 29, 0)
s = 100: (0, 7, 40, 16, 46, 15, 16, 26, 17, 27, 23, 0)
s = 101: (0, 6, 42, 8, 48, 25, 18, 38, 24, 10, 55, 0)
s = 102: (0, 5, 46, 7, 38, 13, 14, 26, 14, 16, 24, 0)
s = 103: (0, 6, 31, 18, 33, 22, 27, 50, 25, 19, 48, 0)
s = 104: (0, 4, 36, 8, 26, 15, 20, 31, 18, 14, 35, 0)
s = 105: (0, 6, 25, 13, 28, 24, 16, 54, 16, 26, 50, 0)
s = 106: (0, 7, 24, 17, 27, 17, 10, 27, 18, 12, 23, 0)
s = 107: (0, 7, 42, 8, 23, 26, 22, 59, 15, 15, 34, 0)
s = 108: (0, 6, 54, 9, 38, 15, 16, 29, 26, 11, 50, 0)
s = 109: (0, 5, 26, 6, 25, 14, 14, 42, 21, 14, 48, 0)
s = 110: (0, 6, 30, 7, 24, 24, 20, 60, 29, 17, 41, 0)
s = 111: (0, 5, 36, 7, 30, 13, 20, 37, 21, 19, 47, 0)
s = 112: (0, 8, 23, 15, 41, 25, 9, 47, 17, 19, 30, 0)
s = 113: (0, 4, 42, 7, 26, 21, 14, 36, 29, 11, 37, 0)
s = 114: (0, 5, 29, 13, 22, 19, 15, 30, 22, 10, 37, 0)
s = 115: (0, 4, 46, 7, 28, 16, 16, 41, 29, 16, 38, 0)
s = 116: (0, 7, 38, 11, 18, 26, 12, 38, 17, 15, 27, 0)
s = 117: (0, 6, 58, 11, 24, 19, 12, 37, 15, 17, 41, 0)
s = 118: (0, 5, 45, 14, 44, 15, 14, 30, 34, 14, 33, 0)
s = 119: (0, 7, 31, 8, 28, 16, 10, 26, 39, 17, 45, 0)
s = 120: (0, 4, 33, 7, 24, 17, 17, 35, 19, 15, 46, 0)
s = 121: (0, 7, 52, 7, 22, 23, 11, 67, 24, 11, 63, 0)
s = 122: (0, 5, 30, 14, 26, 18, 13, 41, 13, 12, 40, 0)
s = 123: (0, 9, 28, 9, 40, 15, 18, 40, 33, 17, 53, 0)
s = 124: (0, 6, 39, 9, 21, 12, 15, 27, 32, 19, 27, 0)
s = 125: (0, 5, 25, 11, 19, 19, 21, 34, 27, 12, 48, 0)
s = 126: (0, 7, 26, 7, 24, 13, 11, 33, 18, 20, 47, 0)
s = 127: (0, 5, 24, 6, 45, 20, 11, 37, 14, 13, 29, 0)
s = 128: (0, 5, 38, 14, 51, 11, 14, 28, 38, 19, 33, 0)
s = 129: (0, 6, 33, 17, 30, 24, 17, 28, 25, 11, 37, 0)
s = 130: (0, 5, 26, 7, 29, 14, 29, 52, 30, 20, 36, 0)
s = 131: (0, 7, 34, 14, 37, 21, 15, 44, 17, 19, 29, 0)
s = 132: (0, 7, 28, 14, 31, 18, 19, 62, 16, 15, 32, 0)
s = 133: (0, 4, 42, 11, 27, 22, 15, 60, 27, 29, 20, 0)
s = 134: (0, 6, 33, 9, 20, 14, 16, 51, 16, 13, 30, 0)
s = 135: (0, 5, 59, 10, 36, 11, 16, 28, 22, 15, 26, 0)
s = 136: (0, 4, 33, 10, 28, 14, 29, 43, 33, 11, 33, 0)
s = 137: (0, 7, 28, 9, 37, 36, 12, 35, 21, 12, 58, 0)
s = 138: (0, 3, 40, 8, 31, 19, 17, 51, 31, 23, 31, 0)
s = 139: (0, 7, 27, 13, 21, 15, 18, 54, 24, 12, 51, 0)
s = 140: (0, 6, 49, 10, 17, 26, 19, 46, 23, 25, 50, 0)
s = 141: (0, 4, 31, 7, 39, 21, 18, 27, 14, 20, 41, 0)
s = 142: (0, 5, 58, 10, 45, 20, 10, 36, 18, 25, 28, 0)
s = 143: (0, 5, 29, 9, 32, 17, 15, 22, 21, 10, 47, 0)
s = 144: (0, 7, 20, 13, 20, 33, 19, 34, 22, 19, 45, 0)
s = 145: (0, 4, 30, 12, 28, 17, 20, 44, 21, 12, 21, 0)
s = 146: (0, 8, 46, 12, 31, 10, 11, 51, 23, 20, 33, 0)
s = 147: (0, 5, 23, 15, 38, 15, 26, 29, 17, 23, 31, 0)
s = 148: (0, 4, 26, 12, 17, 28, 20, 32, 18, 14, 47, 0)
s = 149: (0, 5, 24, 11, 27, 30, 16, 48, 24, 17, 35, 0)
s = 150: (0, 6, 30, 6, 19, 12, 17, 52, 19, 13, 27, 0)
s = 151: (0, 5, 33, 8, 30, 14, 22, 36, 12, 16, 26, 0)
s = 152: (0, 4, 30, 9, 29, 23, 20, 46, 26, 11, 44, 0)
s = 153: (0, 6, 36, 13, 29, 18, 19, 43, 18, 14, 22, 0)
s = 154: (0, 8, 29, 8, 27, 19, 19, 32, 19, 23, 49, 0)
s = 155: (0, 4, 39, 9, 38, 13, 12, 25, 22, 11, 52, 0)
s = 156: (0, 6, 48, 9, 39, 19, 16, 56, 13, 15, 45, 0)
s = 157: (0, 9, 22, 12, 41, 17, 17, 43, 17, 9, 60, 0)
s = 158: (0, 7, 25, 15, 28, 27, 14, 36, 18, 19, 30, 0)
s = 159: (0, 4, 40, 11, 37, 18, 12, 47, 18, 18, 27, 0)
s = 160: (0, 6, 27, 16, 34, 12, 10, 46, 18, 17, 42, 0)
s = 161: (0, 6, 34, 7, 17, 28, 11, 31, 15, 19, 24, 0)
s = 162: (0, 8, 39, 7, 28, 16, 15, 55, 28, 17, 33, 0)
s = 163: (0, 8, 26, 12, 29, 22, 16, 42, 19, 21, 21, 0)
s = 164: (0, 6, 26, 8, 29, 26, 13, 29, 15, 18, 36, 0)
s = 165: (0, 5, 28, 10, 26, 17, 20, 29, 31, 10, 32, 0)
s = 166: (0, 6, 24, 15, 26, 26, 14, 51, 21, 14, 22, 0)
s = 167: (0, 5, 35, 7, 33, 24, 21, 36, 25, 21, 51, 0)
s = 168: (0, 8, 26, 9, 30, 20, 16, 37, 22, 18, 37, 0)
s = 169: (0, 6, 29, 9, 38, 11, 12, 36, 15, 19, 42, 0)
s = 170: (0, 7, 39, 11, 24, 14, 11, 47, 20, 13, 45, 0)
s = 171: (0, 5, 31, 9, 29, 16, 13, 37, 22, 25, 60, 0)
s = 172: (0, 7, 56, 13, 36, 26, 19, 46, 21, 21, 54, 0)
s = 173: (0, 6, 44, 11, 39, 22, 18, 44, 28, 13, 51, 0)
s = 174: (0, 5, 37, 14, 18, 19, 21, 27, 28, 13, 71, 0)
s = 175: (0, 8, 54, 8, 17, 18, 20, 45, 20, 16, 32, 0)
s = 176: (0, 4, 29, 10, 34, 15, 15, 25, 16, 11, 46, 0)
s = 177: (0, 4, 35, 16, 25, 19, 25, 30, 14, 18, 29, 0)
s = 178: (0, 8, 35, 7, 30, 20, 19, 34, 15, 25, 41, 0)
s = 179: (0, 8, 45, 8, 20, 14, 20, 55, 28, 11, 48, 0)
s = 180: (0, 4, 32, 11, 31, 21, 12, 39, 18, 22, 43, 0)
s = 181: (0, 5, 43, 8, 28, 15, 24, 22, 37, 13, 28, 0)
s = 182: (0, 3, 32, 16, 34, 21, 12, 37, 26, 15, 21, 0)
s = 183: (0, 7, 41, 12, 29, 12, 19, 49, 18, 15, 36, 0)
s = 184: (0, 4, 40, 13, 21, 15, 13, 25, 17, 15, 22, 0)
s = 185: (0, 9, 27, 12, 37, 28, 26, 38, 25, 15, 47, 0)
s = 186: (0, 6, 23, 13, 29, 18, 12, 35, 19, 9, 30, 0)
s = 187: (0, 7, 41, 14, 31, 10, 14, 50, 11, 20, 24, 0)
s = 188: (0, 4, 25, 9, 33, 14, 15, 32, 17, 24, 53, 0)
s = 189: (0, 5, 37, 15, 34, 22, 18, 40, 16, 20, 32, 0)
s = 190: (0, 4, 31, 7, 29, 13, 16, 27, 14, 20, 56, 0)
s = 191: (0, 7, 45, 8, 32, 20, 15, 44, 20, 19, 27, 0)
s = 192: (0, 8, 43, 9, 31, 19, 10, 48, 14, 14, 31, 0)
s = 193: (0, 7, 25, 6, 25, 18, 11, 41, 38, 15, 27, 0)
s = 194: (0, 9, 40, 10, 18, 14, 18, 32, 22, 12, 36, 0)
s = 195: (0, 8, 54, 10, 41, 17, 14, 42, 16, 13, 33, 0)
s = 196: (0, 6, 52, 7, 33, 12, 13, 26, 26, 20, 47, 0)
s = 197: (0, 4, 48, 13, 41, 16, 13, 59, 12, 24, 28, 0)
s = 198: (0, 5, 44, 9, 34, 26, 17, 36, 15, 16, 48, 0)
s = 199: (0, 5, 28, 7, 51, 15, 26, 27, 23, 21, 43, 0)
s = 200: (0, 7, 21, 8, 17, 19, 24, 52, 33, 13, 33, 0)
************************************************************************
ES/LS-VALUES:
jobnr.   ES(i)    LS(i)
------------------------------------------------------------------------
  0        0        0
  1        0       39
  2        0       41
  3        0       50
  4        2       41
  5        6       48
  6        2       52
  7        7       47
  8       13       54
  9        5       64
 10       12       56
 11       26       68
************************************************************************
BIG-M-VALUES:
M1 = 48, M2 = 142
************************************************************************
